(set-logic ALL)
(set-option :produce-models true)
(declare-sort BoundSet 0)
(declare-sort UnboundSet 0)
(declare-fun IsTooLittle (BoundSet) Bool)
(declare-fun IsUnrepresentative (BoundSet) Bool)
(declare-fun IsMakeClaim (BoundSet) Bool)
(declare-fun IsClaim (BoundSet) Bool)
(assert (not (=> (exists ((b BoundSet)) (exists ((a BoundSet)) (or (IsTooLittle a) (IsUnrepresentative b)))) (exists ((c BoundSet)) (exists ((d BoundSet)) (and (IsMakeClaim c) (not (IsClaim d))))))))
(check-sat)
(get-model)